HUN,8,6,314
4,23,0,22,5,21,3,23,1,24,2,21
2,23,1,24,3,28,0,21,4,26,5,24
4,21,1,23,2,26,5,22,3,21,0,27
3,30,1,24,2,30,4,25,5,25,0,27
5,22,1,30,0,21,4,25,3,29,2,29
3,28,4,28,1,26,2,29,5,24,0,29
2,30,0,25,5,21,1,27,4,26,3,26
0,26,2,27,1,24,4,23,5,21,3,25
